NAME: tsp_199
COMMENT: Random TSP instance
TYPE: TSP
DIMENSION: 50
EDGE_WEIGHT_TYPE: EUC_2D
NODE_COORD_SECTION
1 776 177
2 81 423
3 389 443
4 729 947
5 748 230
6 310 273
7 374 119
8 369 309
9 18 17
10 484 720
11 954 704
12 586 815
13 708 816
14 118 196
15 100 143
16 628 197
17 865 682
18 976 266
19 473 885
20 674 666
21 985 338
22 727 931
23 395 717
24 691 88
25 619 114
26 630 425
27 88 216
28 673 646
29 660 609
30 66 61
31 273 726
32 306 107
33 395 971
34 462 152
35 325 326
36 220 118
37 17 815
38 703 543
39 1000 818
40 130 359
41 228 465
42 538 460
43 395 678
44 189 480
45 135 147
46 748 186
47 903 350
48 104 812
49 235 484
50 161 775
